NAME : EIL101C.690.tour
COMMENT : Cost = 0_690
COMMENT : Found by LKH [Keld Helsgaun] Sun Sep 17 16:52:42 2017
TYPE : TOUR
DIMENSION : 101
TOUR_SECTION
1
51
9
33
50
26
40
21
73
2
57
15
43
42
14
38
44
86
16
91
100
37
98
92
59
96
95
94
6
89
60
83
45
46
8
82
7
48
19
47
36
49
64
11
63
90
32
10
62
88
31
70
30
20
66
71
65
35
34
78
81
79
3
77
68
80
29
24
55
25
39
67
23
56
75
41
22
74
72
4
54
12
76
28
27
101
53
58
13
87
97
99
93
85
61
17
84
5
18
52
69
-1
EOF
